(set-option :produce-models true)
(set-logic QF_LRA)
(set-info :notes | Strip-packing problem.|)
(declare-fun x0 () Real)
(declare-fun y0 () Real)
(declare-fun x1 () Real)
(declare-fun y1 () Real)
(declare-fun x2 () Real)
(declare-fun y2 () Real)
(declare-fun x3 () Real)
(declare-fun y3 () Real)
(declare-fun x4 () Real)
(declare-fun y4 () Real)
(declare-fun x5 () Real)
(declare-fun y5 () Real)
(declare-fun x6 () Real)
(declare-fun y6 () Real)
(declare-fun x7 () Real)
(declare-fun y7 () Real)
(declare-fun x8 () Real)
(declare-fun y8 () Real)
(declare-fun x9 () Real)
(declare-fun y9 () Real)
(declare-fun x10 () Real)
(declare-fun y10 () Real)
(declare-fun x11 () Real)
(declare-fun y11 () Real)
(declare-fun z () Real)
(declare-fun c () Real)
(assert (and (= c z) (and (>= x0 0) 
(and (>= y0 0) 
(and (>= x1 0) 
(and (>= y1 0) 
(and (>= x2 0) 
(and (>= y2 0) 
(and (>= x3 0) 
(and (>= y3 0) 
(and (>= x4 0) 
(and (>= y4 0) 
(and (>= x5 0) 
(and (>= y5 0) 
(and (>= x6 0) 
(and (>= y6 0) 
(and (>= x7 0) 
(and (>= y7 0) 
(and (>= x8 0) 
(and (>= y8 0) 
(and (>= x9 0) 
(and (>= y9 0) 
(and (>= x10 0) 
(and (>= y10 0) 
(and (>= x11 0) 
(and (>= y11 0) 
(and (>= z 0) 
(and (>= c 0) 
(and (<= (+ x0 0.6953841348) z) 
(and (<= 0.9538209465 y0) 
(and (<= y0 1.0) 
(and (<= x0 (- 4.6132603026 0.6953841348)) 
(and (>= x0 0) 
(and (<= (+ x1 0.6476213528) z) 
(and (<= 0.941275187 y1) 
(and (<= y1 1.0) 
(and (<= x1 (- 4.6132603026 0.6476213528)) 
(and (>= x1 0) 
(and (<= (+ x2 0.3215100873) z) 
(and (<= 0.9353465901 y2) 
(and (<= y2 1.0) 
(and (<= x2 (- 4.6132603026 0.3215100873)) 
(and (>= x2 0) 
(and (<= (+ x3 0.5029831535) z) 
(and (<= 0.8040750817 y3) 
(and (<= y3 1.0) 
(and (<= x3 (- 4.6132603026 0.5029831535)) 
(and (>= x3 0) 
(and (<= (+ x4 0.2951248977) z) 
(and (<= 0.6390301585 y4) 
(and (<= y4 1.0) 
(and (<= x4 (- 4.6132603026 0.2951248977)) 
(and (>= x4 0) 
(and (<= (+ x5 0.9925310556) z) 
(and (<= 0.6166952716 y5) 
(and (<= y5 1.0) 
(and (<= x5 (- 4.6132603026 0.9925310556)) 
(and (>= x5 0) 
(and (<= (+ x6 0.5266694704) z) 
(and (<= 0.2718186169 y6) 
(and (<= y6 1.0) 
(and (<= x6 (- 4.6132603026 0.5266694704)) 
(and (>= x6 0) 
(and (<= (+ x7 0.2240004407) z) 
(and (<= 0.2088474863 y7) 
(and (<= y7 1.0) 
(and (<= x7 (- 4.6132603026 0.2240004407)) 
(and (>= x7 0) 
(and (<= (+ x8 0.5145038277) z) 
(and (<= 0.1688845245 y8) 
(and (<= y8 1.0) 
(and (<= x8 (- 4.6132603026 0.5145038277)) 
(and (>= x8 0) 
(and (<= (+ x9 0.6436017932) z) 
(and (<= 0.1688397226 y9) 
(and (<= y9 1.0) 
(and (<= x9 (- 4.6132603026 0.6436017932)) 
(and (>= x9 0) 
(and (<= (+ x10 0.2545305588) z) 
(and (<= 0.1327271091 y10) 
(and (<= y10 1.0) 
(and (<= x10 (- 4.6132603026 0.2545305588)) 
(and (>= x10 0) 
(and (<= (+ x11 0.9654632013) z) 
(and (<= 0.020379202 y11) 
(and (<= y11 1.0) 
(and (<= x11 (- 4.6132603026 0.9654632013)) 
(and (>= x11 0) 
(and (<= c 4.6132603026) 
(and (or (<= (+ x0 0.6953841348) x1) (or (<= (+ x1 0.6476213528) x0) (or (>= (- y0 0.9538209465) y1) (or (>= (- y1 0.941275187) y0))))) 
(and (or (<= (+ x0 0.6953841348) x2) (or (<= (+ x2 0.3215100873) x0) (or (>= (- y0 0.9538209465) y2) (or (>= (- y2 0.9353465901) y0))))) 
(and (or (<= (+ x0 0.6953841348) x3) (or (<= (+ x3 0.5029831535) x0) (or (>= (- y0 0.9538209465) y3) (or (>= (- y3 0.8040750817) y0))))) 
(and (or (<= (+ x0 0.6953841348) x4) (or (<= (+ x4 0.2951248977) x0) (or (>= (- y0 0.9538209465) y4) (or (>= (- y4 0.6390301585) y0))))) 
(and (or (<= (+ x0 0.6953841348) x5) (or (<= (+ x5 0.9925310556) x0) (or (>= (- y0 0.9538209465) y5) (or (>= (- y5 0.6166952716) y0))))) 
(and (or (<= (+ x0 0.6953841348) x6) (or (<= (+ x6 0.5266694704) x0) (or (>= (- y0 0.9538209465) y6) (or (>= (- y6 0.2718186169) y0))))) 
(and (or (<= (+ x0 0.6953841348) x7) (or (<= (+ x7 0.2240004407) x0) (or (>= (- y0 0.9538209465) y7) (or (>= (- y7 0.2088474863) y0))))) 
(and (or (<= (+ x0 0.6953841348) x8) (or (<= (+ x8 0.5145038277) x0) (or (>= (- y0 0.9538209465) y8) (or (>= (- y8 0.1688845245) y0))))) 
(and (or (<= (+ x0 0.6953841348) x9) (or (<= (+ x9 0.6436017932) x0) (or (>= (- y0 0.9538209465) y9) (or (>= (- y9 0.1688397226) y0))))) 
(and (or (<= (+ x0 0.6953841348) x10) (or (<= (+ x10 0.2545305588) x0) (or (>= (- y0 0.9538209465) y10) (or (>= (- y10 0.1327271091) y0))))) 
(and (or (<= (+ x0 0.6953841348) x11) (or (<= (+ x11 0.9654632013) x0) (or (>= (- y0 0.9538209465) y11) (or (>= (- y11 0.020379202) y0))))) 
(and (or (<= (+ x1 0.6476213528) x2) (or (<= (+ x2 0.3215100873) x1) (or (>= (- y1 0.941275187) y2) (or (>= (- y2 0.9353465901) y1))))) 
(and (or (<= (+ x1 0.6476213528) x3) (or (<= (+ x3 0.5029831535) x1) (or (>= (- y1 0.941275187) y3) (or (>= (- y3 0.8040750817) y1))))) 
(and (or (<= (+ x1 0.6476213528) x4) (or (<= (+ x4 0.2951248977) x1) (or (>= (- y1 0.941275187) y4) (or (>= (- y4 0.6390301585) y1))))) 
(and (or (<= (+ x1 0.6476213528) x5) (or (<= (+ x5 0.9925310556) x1) (or (>= (- y1 0.941275187) y5) (or (>= (- y5 0.6166952716) y1))))) 
(and (or (<= (+ x1 0.6476213528) x6) (or (<= (+ x6 0.5266694704) x1) (or (>= (- y1 0.941275187) y6) (or (>= (- y6 0.2718186169) y1))))) 
(and (or (<= (+ x1 0.6476213528) x7) (or (<= (+ x7 0.2240004407) x1) (or (>= (- y1 0.941275187) y7) (or (>= (- y7 0.2088474863) y1))))) 
(and (or (<= (+ x1 0.6476213528) x8) (or (<= (+ x8 0.5145038277) x1) (or (>= (- y1 0.941275187) y8) (or (>= (- y8 0.1688845245) y1))))) 
(and (or (<= (+ x1 0.6476213528) x9) (or (<= (+ x9 0.6436017932) x1) (or (>= (- y1 0.941275187) y9) (or (>= (- y9 0.1688397226) y1))))) 
(and (or (<= (+ x1 0.6476213528) x10) (or (<= (+ x10 0.2545305588) x1) (or (>= (- y1 0.941275187) y10) (or (>= (- y10 0.1327271091) y1))))) 
(and (or (<= (+ x1 0.6476213528) x11) (or (<= (+ x11 0.9654632013) x1) (or (>= (- y1 0.941275187) y11) (or (>= (- y11 0.020379202) y1))))) 
(and (or (<= (+ x2 0.3215100873) x3) (or (<= (+ x3 0.5029831535) x2) (or (>= (- y2 0.9353465901) y3) (or (>= (- y3 0.8040750817) y2))))) 
(and (or (<= (+ x2 0.3215100873) x4) (or (<= (+ x4 0.2951248977) x2) (or (>= (- y2 0.9353465901) y4) (or (>= (- y4 0.6390301585) y2))))) 
(and (or (<= (+ x2 0.3215100873) x5) (or (<= (+ x5 0.9925310556) x2) (or (>= (- y2 0.9353465901) y5) (or (>= (- y5 0.6166952716) y2))))) 
(and (or (<= (+ x2 0.3215100873) x6) (or (<= (+ x6 0.5266694704) x2) (or (>= (- y2 0.9353465901) y6) (or (>= (- y6 0.2718186169) y2))))) 
(and (or (<= (+ x2 0.3215100873) x7) (or (<= (+ x7 0.2240004407) x2) (or (>= (- y2 0.9353465901) y7) (or (>= (- y7 0.2088474863) y2))))) 
(and (or (<= (+ x2 0.3215100873) x8) (or (<= (+ x8 0.5145038277) x2) (or (>= (- y2 0.9353465901) y8) (or (>= (- y8 0.1688845245) y2))))) 
(and (or (<= (+ x2 0.3215100873) x9) (or (<= (+ x9 0.6436017932) x2) (or (>= (- y2 0.9353465901) y9) (or (>= (- y9 0.1688397226) y2))))) 
(and (or (<= (+ x2 0.3215100873) x10) (or (<= (+ x10 0.2545305588) x2) (or (>= (- y2 0.9353465901) y10) (or (>= (- y10 0.1327271091) y2))))) 
(and (or (<= (+ x2 0.3215100873) x11) (or (<= (+ x11 0.9654632013) x2) (or (>= (- y2 0.9353465901) y11) (or (>= (- y11 0.020379202) y2))))) 
(and (or (<= (+ x3 0.5029831535) x4) (or (<= (+ x4 0.2951248977) x3) (or (>= (- y3 0.8040750817) y4) (or (>= (- y4 0.6390301585) y3))))) 
(and (or (<= (+ x3 0.5029831535) x5) (or (<= (+ x5 0.9925310556) x3) (or (>= (- y3 0.8040750817) y5) (or (>= (- y5 0.6166952716) y3))))) 
(and (or (<= (+ x3 0.5029831535) x6) (or (<= (+ x6 0.5266694704) x3) (or (>= (- y3 0.8040750817) y6) (or (>= (- y6 0.2718186169) y3))))) 
(and (or (<= (+ x3 0.5029831535) x7) (or (<= (+ x7 0.2240004407) x3) (or (>= (- y3 0.8040750817) y7) (or (>= (- y7 0.2088474863) y3))))) 
(and (or (<= (+ x3 0.5029831535) x8) (or (<= (+ x8 0.5145038277) x3) (or (>= (- y3 0.8040750817) y8) (or (>= (- y8 0.1688845245) y3))))) 
(and (or (<= (+ x3 0.5029831535) x9) (or (<= (+ x9 0.6436017932) x3) (or (>= (- y3 0.8040750817) y9) (or (>= (- y9 0.1688397226) y3))))) 
(and (or (<= (+ x3 0.5029831535) x10) (or (<= (+ x10 0.2545305588) x3) (or (>= (- y3 0.8040750817) y10) (or (>= (- y10 0.1327271091) y3))))) 
(and (or (<= (+ x3 0.5029831535) x11) (or (<= (+ x11 0.9654632013) x3) (or (>= (- y3 0.8040750817) y11) (or (>= (- y11 0.020379202) y3))))) 
(and (or (<= (+ x4 0.2951248977) x5) (or (<= (+ x5 0.9925310556) x4) (or (>= (- y4 0.6390301585) y5) (or (>= (- y5 0.6166952716) y4))))) 
(and (or (<= (+ x4 0.2951248977) x6) (or (<= (+ x6 0.5266694704) x4) (or (>= (- y4 0.6390301585) y6) (or (>= (- y6 0.2718186169) y4))))) 
(and (or (<= (+ x4 0.2951248977) x7) (or (<= (+ x7 0.2240004407) x4) (or (>= (- y4 0.6390301585) y7) (or (>= (- y7 0.2088474863) y4))))) 
(and (or (<= (+ x4 0.2951248977) x8) (or (<= (+ x8 0.5145038277) x4) (or (>= (- y4 0.6390301585) y8) (or (>= (- y8 0.1688845245) y4))))) 
(and (or (<= (+ x4 0.2951248977) x9) (or (<= (+ x9 0.6436017932) x4) (or (>= (- y4 0.6390301585) y9) (or (>= (- y9 0.1688397226) y4))))) 
(and (or (<= (+ x4 0.2951248977) x10) (or (<= (+ x10 0.2545305588) x4) (or (>= (- y4 0.6390301585) y10) (or (>= (- y10 0.1327271091) y4))))) 
(and (or (<= (+ x4 0.2951248977) x11) (or (<= (+ x11 0.9654632013) x4) (or (>= (- y4 0.6390301585) y11) (or (>= (- y11 0.020379202) y4))))) 
(and (or (<= (+ x5 0.9925310556) x6) (or (<= (+ x6 0.5266694704) x5) (or (>= (- y5 0.6166952716) y6) (or (>= (- y6 0.2718186169) y5))))) 
(and (or (<= (+ x5 0.9925310556) x7) (or (<= (+ x7 0.2240004407) x5) (or (>= (- y5 0.6166952716) y7) (or (>= (- y7 0.2088474863) y5))))) 
(and (or (<= (+ x5 0.9925310556) x8) (or (<= (+ x8 0.5145038277) x5) (or (>= (- y5 0.6166952716) y8) (or (>= (- y8 0.1688845245) y5))))) 
(and (or (<= (+ x5 0.9925310556) x9) (or (<= (+ x9 0.6436017932) x5) (or (>= (- y5 0.6166952716) y9) (or (>= (- y9 0.1688397226) y5))))) 
(and (or (<= (+ x5 0.9925310556) x10) (or (<= (+ x10 0.2545305588) x5) (or (>= (- y5 0.6166952716) y10) (or (>= (- y10 0.1327271091) y5))))) 
(and (or (<= (+ x5 0.9925310556) x11) (or (<= (+ x11 0.9654632013) x5) (or (>= (- y5 0.6166952716) y11) (or (>= (- y11 0.020379202) y5))))) 
(and (or (<= (+ x6 0.5266694704) x7) (or (<= (+ x7 0.2240004407) x6) (or (>= (- y6 0.2718186169) y7) (or (>= (- y7 0.2088474863) y6))))) 
(and (or (<= (+ x6 0.5266694704) x8) (or (<= (+ x8 0.5145038277) x6) (or (>= (- y6 0.2718186169) y8) (or (>= (- y8 0.1688845245) y6))))) 
(and (or (<= (+ x6 0.5266694704) x9) (or (<= (+ x9 0.6436017932) x6) (or (>= (- y6 0.2718186169) y9) (or (>= (- y9 0.1688397226) y6))))) 
(and (or (<= (+ x6 0.5266694704) x10) (or (<= (+ x10 0.2545305588) x6) (or (>= (- y6 0.2718186169) y10) (or (>= (- y10 0.1327271091) y6))))) 
(and (or (<= (+ x6 0.5266694704) x11) (or (<= (+ x11 0.9654632013) x6) (or (>= (- y6 0.2718186169) y11) (or (>= (- y11 0.020379202) y6))))) 
(and (or (<= (+ x7 0.2240004407) x8) (or (<= (+ x8 0.5145038277) x7) (or (>= (- y7 0.2088474863) y8) (or (>= (- y8 0.1688845245) y7))))) 
(and (or (<= (+ x7 0.2240004407) x9) (or (<= (+ x9 0.6436017932) x7) (or (>= (- y7 0.2088474863) y9) (or (>= (- y9 0.1688397226) y7))))) 
(and (or (<= (+ x7 0.2240004407) x10) (or (<= (+ x10 0.2545305588) x7) (or (>= (- y7 0.2088474863) y10) (or (>= (- y10 0.1327271091) y7))))) 
(and (or (<= (+ x7 0.2240004407) x11) (or (<= (+ x11 0.9654632013) x7) (or (>= (- y7 0.2088474863) y11) (or (>= (- y11 0.020379202) y7))))) 
(and (or (<= (+ x8 0.5145038277) x9) (or (<= (+ x9 0.6436017932) x8) (or (>= (- y8 0.1688845245) y9) (or (>= (- y9 0.1688397226) y8))))) 
(and (or (<= (+ x8 0.5145038277) x10) (or (<= (+ x10 0.2545305588) x8) (or (>= (- y8 0.1688845245) y10) (or (>= (- y10 0.1327271091) y8))))) 
(and (or (<= (+ x8 0.5145038277) x11) (or (<= (+ x11 0.9654632013) x8) (or (>= (- y8 0.1688845245) y11) (or (>= (- y11 0.020379202) y8))))) 
(and (or (<= (+ x9 0.6436017932) x10) (or (<= (+ x10 0.2545305588) x9) (or (>= (- y9 0.1688397226) y10) (or (>= (- y10 0.1327271091) y9))))) 
(and (or (<= (+ x9 0.6436017932) x11) (or (<= (+ x11 0.9654632013) x9) (or (>= (- y9 0.1688397226) y11) (or (>= (- y11 0.020379202) y9))))) 
(and (or (<= (+ x10 0.2545305588) x11) (or (<= (+ x11 0.9654632013) x10) (or (>= (- y10 0.1327271091) y11) (or (>= (- y11 0.020379202) y10))))) )))))))))))))))))))))))))))))))))))))))))))))))))))))))))))))))))))))))))))))))))))))))))))))))))))))))))))))))))))))))))))))))))))))))))))))))))))))))))))
(minimize c)
(check-sat)
(get-objectives)
(exit)
